Second Year - 2020-2021/First Semester/Algorithm Analysis/Homework 2/sat_in/bonus/05.wcnf
p wcnf 7 20 79
79 1 2 0
79 1 3 0
79 1 5 0
79 1 6 0
79 1 7 0
79 2 3 0
79 2 5 0
79 2 6 0
79 2 7 0
79 3 6 0
79 3 7 0
79 4 5 0
79 5 7 0
8 -1 0
9 -2 0
11 -3 0
12 -4 0
12 -5 0
13 -6 0
13 -7 0
