Second Year - 2020-2021/First Semester/Algorithm Analysis/Homework 2/sat_in/task2/05.cnf
p cnf 24 138
1 2 3 4 5 6 7 8 0
9 10 11 12 13 14 15 16 0
17 18 19 20 21 22 23 24 0
-1 -9 0
-2 -10 0
-3 -11 0
-4 -12 0
-5 -13 0
-6 -14 0
-7 -15 0
-8 -16 0
-1 -17 0
-2 -18 0
-3 -19 0
-4 -20 0
-5 -21 0
-6 -22 0
-7 -23 0
-8 -24 0
-9 -17 0
-10 -18 0
-11 -19 0
-12 -20 0
-13 -21 0
-14 -22 0
-15 -23 0
-16 -24 0
-1 -11 0
-1 -14 0
-1 -16 0
-2 -9 0
-2 -16 0
-3 -9 0
-3 -10 0
-3 -13 0
-4 -9 0
-4 -10 0
-4 -11 0
-4 -14 0
-4 -15 0
-5 -9 0
-5 -10 0
-5 -11 0
-5 -12 0
-6 -9 0
-6 -10 0
-6 -11 0
-6 -12 0
-6 -13 0
-6 -16 0
-7 -9 0
-7 -10 0
-7 -11 0
-7 -12 0
-7 -13 0
-7 -14 0
-7 -16 0
-8 -9 0
-8 -10 0
-8 -11 0
-8 -12 0
-8 -13 0
-8 -14 0
-8 -15 0
-1 -19 0
-1 -22 0
-1 -24 0
-2 -17 0
-2 -24 0
-3 -17 0
-3 -18 0
-3 -21 0
-4 -17 0
-4 -18 0
-4 -19 0
-4 -22 0
-4 -23 0
-5 -17 0
-5 -18 0
-5 -19 0
-5 -20 0
-6 -17 0
-6 -18 0
-6 -19 0
-6 -20 0
-6 -21 0
-6 -24 0
-7 -17 0
-7 -18 0
-7 -19 0
-7 -20 0
-7 -21 0
-7 -22 0
-7 -24 0
-8 -17 0
-8 -18 0
-8 -19 0
-8 -20 0
-8 -21 0
-8 -22 0
-8 -23 0
-9 -19 0
-9 -22 0
-9 -24 0
-10 -17 0
-10 -24 0
-11 -17 0
-11 -18 0
-11 -21 0
-12 -17 0
-12 -18 0
-12 -19 0
-12 -22 0
-12 -23 0
-13 -17 0
-13 -18 0
-13 -19 0
-13 -20 0
-14 -17 0
-14 -18 0
-14 -19 0
-14 -20 0
-14 -21 0
-14 -24 0
-15 -17 0
-15 -18 0
-15 -19 0
-15 -20 0
-15 -21 0
-15 -22 0
-15 -24 0
-16 -17 0
-16 -18 0
-16 -19 0
-16 -20 0
-16 -21 0
-16 -22 0
-16 -23 0
